JulietBench/Juliet_Based_Patch_Bench/linux/CWE-189-Numeric-Errors/CVE_2010_2538_2ebc3464781ad24474abcbd2274e6254689853b5/Resultbtrfs_ioctl_clone_SnippetNEQ.smt2
; benchmark generated from python API
(set-info :status unknown)
(declare-fun R () (_ BitVec 64))
(declare-fun rdi () (_ BitVec 64))
(declare-fun rsi () (_ BitVec 64))
(declare-fun rdx () (_ BitVec 64))
(assert
 (let (($x4501 (= (_ bv18446744073709551594 64) R)))
 (let ((?x51 (bvadd rsi rdi)))
 (let (($x52 (bvult rdx ?x51)))
 (let (($x4508 (and $x52 $x4501)))
 (let (($x1263 (bvuge rdx ?x51)))
 (let (($x3681 (bvugt rdi ?x51)))
 (let (($x4507 (and $x3681 $x1263 $x4501)))
 (let (($x4498 (= R rsi)))
 (let (($x3431 (bvule rdi ?x51)))
 (let (($x3455 (and (distinct (_ bv0 64) rsi) true)))
 (let (($x4506 (and $x3455 $x3431 $x1263 $x4498)))
 (let ((?x3434 (bvmul (_ bv18446744073709551615 64) rdi)))
 (let ((?x3457 (bvadd rdx ?x3434)))
 (let (($x3680 (= R ?x3457)))
 (let (($x2622 (= (_ bv0 64) rsi)))
 (let (($x4505 (and $x2622 $x3431 $x1263 $x3680)))
 (let (($x4509 (or $x4505 $x4506 $x4507 $x4508)))
 (let (($x4512 (not $x4509)))
 (let (($x36 (bvuge rdi rdx)))
 (let (($x4503 (and $x36 $x4501)))
 (let (($x15 (bvult rdi rdx)))
 (let (($x4502 (and $x52 $x15 $x4501)))
 (let (($x4499 (and $x3455 $x1263 $x15 $x4498)))
 (let (($x3679 (and $x2622 $x1263 $x15 $x3680)))
 (let (($x4504 (or $x3679 $x4499 $x4502 $x4503)))
 (let (($x4511 (not $x4504)))
 (let (($x4513 (and $x4511 $x4512)))
 (let (($x4510 (and $x4504 $x4509)))
 (let (($x4514 (or $x4510 $x4513)))
 (not $x4514)))))))))))))))))))))))))))))))
(check-sat)
